CUST NO.   XCOORD.   YCOORD.     DEMAND  READY TIME DUE DATE  SERVICE TIME
    1      40.00      50.00       0.00       0.00    3390.00       0.00
    2      52.00      75.00      10.00     213.00     568.00      90.00
    3      45.00      70.00      30.00      22.00     563.00      90.00
    4      62.00      69.00      10.00    1030.00    1463.00      90.00
    5      60.00      66.00      10.00    1154.00    1527.00      90.00
    6      42.00      65.00      10.00      15.00     402.00      90.00
    7      16.00      42.00      20.00     331.00     822.00      90.00
    8      58.00      70.00      20.00     965.00    1340.00      90.00
    9      34.00      60.00      20.00    2653.00    3280.00      90.00
   10      28.00      70.00      10.00    2385.00    2976.00      90.00
   11      35.00      66.00      10.00    2628.00    3113.00      90.00
   12      35.00      69.00      10.00    2603.00    2952.00      90.00
